
Gurobi 9.5.2 (mac64[arm]) logging started Fri Apr 28 19:18:08 2023

Set parameter LogFile to value "Java/output/iterative_model_2_machine/scenario_seed_4_nJob_40_machineCount_2/mip_increment_2/log.txt"
Gurobi Optimizer version 9.5.2 build v9.5.2rc0 (mac64[arm])
Thread count: 8 physical cores, 8 logical processors, using up to 8 threads
Optimize a model with 961 rows, 6364 columns and 41965 nonzeros
Model fingerprint: 0x950db669
Variable types: 0 continuous, 6364 integer (6364 binary)
Coefficient statistics:
  Matrix range     [1e+00, 2e+02]
  Objective range  [2e+01, 2e+06]
  Bounds range     [1e+00, 1e+00]
  RHS range        [1e+00, 1e+00]
Found heuristic solution: objective 1.552594e+07
Presolve removed 92 rows and 1161 columns
Presolve time: 0.06s
Presolved: 869 rows, 5203 columns, 34123 nonzeros
Variable types: 0 continuous, 5203 integer (5201 binary)

Root relaxation: objective 9.656948e+03, 1637 iterations, 0.04 seconds (0.08 work units)

    Nodes    |    Current Node    |     Objective Bounds      |     Work
 Expl Unexpl |  Obj  Depth IntInf | Incumbent    BestBd   Gap | It/Node Time

     0     0 9656.94763    0   98 1.5526e+07 9656.94763   100%     -    0s
H    0     0                    3016080.0000 9656.94763   100%     -    0s
H    0     0                    1455312.0000 9656.94763  99.3%     -    0s
H    0     0                    1453520.0000 9656.94763  99.3%     -    0s
     0     0 10245.2499    0  132 1453520.00 10245.2499  99.3%     -    0s
H    0     0                    1453392.0000 10245.2499  99.3%     -    0s
H    0     0                    776144.00000 10245.2499  98.7%     -    0s
     0     0 10762.7737    0  144 776144.000 10762.7737  98.6%     -    0s
     0     0 10766.0609    0  144 776144.000 10766.0609  98.6%     -    0s
     0     0 10767.4579    0  142 776144.000 10767.4579  98.6%     -    0s
     0     0 11619.2133    0  167 776144.000 11619.2133  98.5%     -    0s
H    0     0                    775984.00000 11619.2133  98.5%     -    0s
     0     0 11654.1702    0  185 775984.000 11654.1702  98.5%     -    0s
     0     0 11658.9522    0  185 775984.000 11658.9522  98.5%     -    0s
     0     0 11659.0978    0  187 775984.000 11659.0978  98.5%     -    0s
     0     0 13781.5588    0  184 775984.000 13781.5588  98.2%     -    0s
H    0     0                    744464.00000 13781.5588  98.1%     -    0s
     0     0 15447.2277    0  189 744464.000 15447.2277  97.9%     -    0s
     0     0 17102.0356    0  188 744464.000 17102.0356  97.7%     -    0s
     0     0 17230.8085    0  194 744464.000 17230.8085  97.7%     -    0s
     0     0 17256.7151    0  184 744464.000 17256.7151  97.7%     -    0s
     0     0 17257.2122    0  192 744464.000 17257.2122  97.7%     -    0s
     0     0 21475.2525    0  185 744464.000 21475.2525  97.1%     -    0s
H    0     0                    744400.00000 21475.2525  97.1%     -    0s
H    0     0                    744240.00000 21475.2525  97.1%     -    0s
H    0     0                    596720.00000 21475.2525  96.4%     -    0s
     0     0 21727.8919    0  188 596720.000 21727.8919  96.4%     -    0s
     0     0 21851.2371    0  197 596720.000 21851.2371  96.3%     -    0s
     0     0 21852.9303    0  197 596720.000 21852.9303  96.3%     -    0s
     0     0 27090.6062    0  183 596720.000 27090.6062  95.5%     -    0s
H    0     0                    562128.00000 27090.6062  95.2%     -    0s
H    0     0                    523952.00000 27090.6062  94.8%     -    0s
     0     0 27791.4218    0  191 523952.000 27791.4218  94.7%     -    0s
     0     0 27821.4334    0  198 523952.000 27821.4334  94.7%     -    1s
H    0     0                    162912.00000 27944.0689  82.8%     -    1s
     0     0 27944.0689    0  194 162912.000 27944.0689  82.8%     -    1s
     0     0 27952.3202    0  198 162912.000 27952.3202  82.8%     -    1s
     0     0 33243.0870    0  187 162912.000 33243.0870  79.6%     -    1s
     0     0 33243.0870    0   99 162912.000 33243.0870  79.6%     -    1s
H    0     0                    132096.00000 33243.0870  74.8%     -    1s
     0     0 33243.0870    0  152 132096.000 33243.0870  74.8%     -    1s
     0     0 33243.0870    0  174 132096.000 33243.0870  74.8%     -    1s
     0     0 33383.2287    0  191 132096.000 33383.2287  74.7%     -    1s
     0     0 33419.5663    0  194 132096.000 33419.5663  74.7%     -    1s
     0     0 33437.9128    0  186 132096.000 33437.9128  74.7%     -    1s
     0     0 33437.9128    0  187 132096.000 33437.9128  74.7%     -    1s
     0     0 36521.0839    0  201 132096.000 36521.0839  72.4%     -    1s
     0     0 36782.3381    0  196 132096.000 36782.3381  72.2%     -    1s
     0     0 36900.5237    0  196 132096.000 36900.5237  72.1%     -    1s
     0     0 36912.6608    0  199 132096.000 36912.6608  72.1%     -    1s
H    0     0                    122080.00000 36912.6608  69.8%     -    1s
     0     0 45537.8158    0  187 122080.000 45537.8158  62.7%     -    1s
     0     0 47672.1400    0  181 122080.000 47672.1400  61.0%     -    1s
     0     0 48943.3470    0  170 122080.000 48943.3470  59.9%     -    1s
     0     0 48944.7146    0  177 122080.000 48944.7146  59.9%     -    1s
     0     0 50619.1131    0  199 122080.000 50619.1131  58.5%     -    1s
     0     0 54547.5635    0  190 122080.000 54547.5635  55.3%     -    1s
     0     0 55228.7436    0  194 122080.000 55228.7436  54.8%     -    1s
     0     0 55271.7150    0  199 122080.000 55271.7150  54.7%     -    1s
H    0     0                    117600.00000 55271.7150  53.0%     -    1s
     0     0 55952.2324    0  198 117600.000 55952.2324  52.4%     -    1s
H    0     0                    91904.000000 55952.2324  39.1%     -    1s
     0     0 56067.0618    0  196 91904.0000 56067.0618  39.0%     -    1s
     0     0 56087.0868    0  207 91904.0000 56087.0868  39.0%     -    1s
     0     0 56704.6345    0  201 91904.0000 56704.6345  38.3%     -    1s
H    0     0                    91232.000000 56704.6345  37.8%     -    1s
     0     0 56979.1762    0  216 91232.0000 56979.1762  37.5%     -    1s
     0     0 56993.6696    0  210 91232.0000 56993.6696  37.5%     -    1s
     0     0 57185.6853    0  226 91232.0000 57185.6853  37.3%     -    2s
     0     0 57185.6853    0  221 91232.0000 57185.6853  37.3%     -    2s
     0     0 57185.6853    0  218 91232.0000 57185.6853  37.3%     -    2s
     0     0 57218.0735    0  108 91232.0000 57218.0735  37.3%     -    2s
     0     0 57218.0735    0  152 91232.0000 57218.0735  37.3%     -    2s
     0     0 57218.0735    0  172 91232.0000 57218.0735  37.3%     -    2s
H    0     0                    91040.000000 57218.0735  37.2%     -    2s
     0     0 57218.0735    0  199 91040.0000 57218.0735  37.2%     -    2s
H    0     0                    82224.000000 57218.0735  30.4%     -    2s
     0     0 57514.8381    0  209 82224.0000 57514.8381  30.1%     -    2s
     0     0 57634.3672    0  210 82224.0000 57634.3672  29.9%     -    2s
     0     0 57651.2400    0  213 82224.0000 57651.2400  29.9%     -    2s
     0     0 57654.9648    0  215 82224.0000 57654.9648  29.9%     -    2s
     0     0 57773.9849    0  216 82224.0000 57773.9849  29.7%     -    2s
H    0     0                    82160.000000 57773.9849  29.7%     -    2s
     0     0 57789.9641    0  222 82160.0000 57789.9641  29.7%     -    2s
     0     0 58152.5857    0  215 82160.0000 58152.5857  29.2%     -    2s
     0     0 58152.5857    0  211 82160.0000 58152.5857  29.2%     -    2s
H    0     0                    81488.000000 58183.9843  28.6%     -    2s
H    0     0                    80224.000000 58183.9843  27.5%     -    2s
     0     2 58183.9843    0  211 80224.0000 58183.9843  27.5%     -    2s
H   31    38                    61088.000000 59254.1224  3.00%   293    2s
H   76    33                    60896.000000 59259.4751  2.69%   158    2s
H   80    33                    59840.000000 59259.4751  0.97%   156    2s

Cutting planes:
  Gomory: 2
  Cover: 17
  Clique: 40
  MIR: 71
  StrongCG: 24
  GUB cover: 95
  Zero half: 8
  RLT: 2

Explored 136 nodes (39899 simplex iterations) in 2.87 seconds (4.38 work units)
Thread count was 8 (of 8 available processors)

Solution count 10: 59840 60896 61088 ... 91904

Optimal solution found (tolerance 1.00e-04)
Best objective 5.984000000000e+04, best bound 5.984000000000e+04, gap 0.0000%

Gurobi 9.5.2 (mac64[arm]) logging started Fri Apr 28 19:18:11 2023

Set parameter LogFile to value "Java/output/iterative_model_2_machine/scenario_seed_4_nJob_40_machineCount_2/mip_increment_2/log.txt"
Gurobi Optimizer version 9.5.2 build v9.5.2rc0 (mac64[arm])
Thread count: 8 physical cores, 8 logical processors, using up to 8 threads
Optimize a model with 953 rows, 3926 columns and 29077 nonzeros
Model fingerprint: 0x50bb118a
Variable types: 0 continuous, 3926 integer (3926 binary)
Coefficient statistics:
  Matrix range     [1e+00, 2e+02]
  Objective range  [2e+02, 3e+05]
  Bounds range     [1e+00, 1e+00]
  RHS range        [1e+00, 1e+00]
Presolve removed 350 rows and 709 columns
Presolve time: 0.03s
Presolved: 603 rows, 3217 columns, 23472 nonzeros
Variable types: 0 continuous, 3217 integer (3215 binary)

Root relaxation: objective 4.412789e+04, 1014 iterations, 0.02 seconds (0.04 work units)

    Nodes    |    Current Node    |     Objective Bounds      |     Work
 Expl Unexpl |  Obj  Depth IntInf | Incumbent    BestBd   Gap | It/Node Time

     0     0 44127.8907    0  115          - 44127.8907      -     -    0s
H    0     0                    641464.00000 44127.8907  93.1%     -    0s
H    0     0                    339580.00000 44127.8907  87.0%     -    0s
H    0     0                    308124.00000 44127.8907  85.7%     -    0s
H    0     0                    281636.00000 44127.8907  84.3%     -    0s
     0     0 47780.9944    0  159 281636.000 47780.9944  83.0%     -    0s
H    0     0                    163112.00000 47780.9944  70.7%     -    0s
H    0     0                    136972.00000 48426.1863  64.6%     -    0s
     0     0 48426.1863    0  157 136972.000 48426.1863  64.6%     -    0s
     0     0 48426.6919    0  162 136972.000 48426.6919  64.6%     -    0s
H    0     0                    111972.00000 50243.1541  55.1%     -    0s
     0     0 50243.1541    0  183 111972.000 50243.1541  55.1%     -    0s
     0     0 50409.5045    0  176 111972.000 50409.5045  55.0%     -    0s
     0     0 50435.6668    0  173 111972.000 50435.6668  55.0%     -    0s
     0     0 50447.2439    0  157 111972.000 50447.2439  54.9%     -    0s
     0     0 50455.0585    0  174 111972.000 50455.0585  54.9%     -    0s
H    0     0                    110044.00000 50455.0585  54.2%     -    0s
H    0     0                    105156.00000 50455.0585  52.0%     -    0s
H    0     0                    98508.000000 53346.4740  45.8%     -    0s
H    0     0                    98444.000000 53346.4740  45.8%     -    0s
H    0     0                    97772.000000 53346.4740  45.4%     -    0s
     0     0 53346.4740    0  201 97772.0000 53346.4740  45.4%     -    0s
     0     0 53907.9943    0  211 97772.0000 53907.9943  44.9%     -    0s
     0     0 54037.7661    0  204 97772.0000 54037.7661  44.7%     -    0s
     0     0 54076.5165    0  201 97772.0000 54076.5165  44.7%     -    0s
     0     0 54079.1287    0  206 97772.0000 54079.1287  44.7%     -    0s
H    0     0                    93964.000000 55012.0248  41.5%     -    0s
     0     0 55012.0248    0  224 93964.0000 55012.0248  41.5%     -    0s
H    0     0                    87488.000000 55564.8774  36.5%     -    0s
     0     0 55564.8774    0  215 87488.0000 55564.8774  36.5%     -    0s
     0     0 55636.8589    0  214 87488.0000 55636.8589  36.4%     -    0s
     0     0 55759.4160    0  240 87488.0000 55759.4160  36.3%     -    0s
     0     0 55848.1262    0  231 87488.0000 55848.1262  36.2%     -    0s
     0     0 55861.1011    0  230 87488.0000 55861.1011  36.1%     -    0s
     0     0 55861.8464    0  234 87488.0000 55861.8464  36.1%     -    0s
H    0     0                    80468.000000 56168.2085  30.2%     -    0s
     0     0 56168.2085    0  226 80468.0000 56168.2085  30.2%     -    0s
H    0     0                    77100.000000 56168.2085  27.1%     -    0s
     0     0 56193.4966    0  229 77100.0000 56193.4966  27.1%     -    0s
     0     0 56194.0851    0  224 77100.0000 56194.0851  27.1%     -    0s
     0     0 56225.2655    0  229 77100.0000 56225.2655  27.1%     -    0s
     0     0 56225.2655    0  118 77100.0000 56225.2655  27.1%     -    0s
H    0     0                    76292.000000 56225.2655  26.3%     -    0s
     0     0 56225.2655    0  187 76292.0000 56225.2655  26.3%     -    0s
     0     0 56225.2655    0  197 76292.0000 56225.2655  26.3%     -    1s
     0     0 56225.2655    0  220 76292.0000 56225.2655  26.3%     -    1s
     0     0 56225.2655    0  230 76292.0000 56225.2655  26.3%     -    1s
     0     0 56225.2655    0  233 76292.0000 56225.2655  26.3%     -    1s
     0     0 56239.1946    0  239 76292.0000 56239.1946  26.3%     -    1s
     0     0 56242.0220    0  240 76292.0000 56242.0220  26.3%     -    1s
     0     0 56315.6757    0  225 76292.0000 56315.6757  26.2%     -    1s
     0     0 56324.5934    0  227 76292.0000 56324.5934  26.2%     -    1s
     0     0 56658.4591    0  241 76292.0000 56658.4591  25.7%     -    1s
     0     0 56756.3886    0  242 76292.0000 56756.3886  25.6%     -    1s
     0     0 56757.3949    0  240 76292.0000 56757.3949  25.6%     -    1s
     0     0 57351.4227    0  235 76292.0000 57351.4227  24.8%     -    1s
     0     0 57430.8683    0  226 76292.0000 57430.8683  24.7%     -    1s
     0     0 57436.6234    0  210 76292.0000 57436.6234  24.7%     -    1s
     0     0 57562.5418    0  220 76292.0000 57562.5418  24.5%     -    1s
     0     0 57573.1179    0  216 76292.0000 57573.1179  24.5%     -    1s
     0     0 57603.9019    0  210 76292.0000 57603.9019  24.5%     -    1s
     0     0 57603.9019    0  205 76292.0000 57603.9019  24.5%     -    1s
H    0     0                    70332.000000 57605.8703  18.1%     -    1s
H    0     2                    69052.000000 57605.8703  16.6%     -    1s
     0     2 57605.8703    0  197 69052.0000 57605.8703  16.6%     -    1s
H   33    36                    66644.000000 59040.5134  11.4%   428    1s
*   35    36               5    61464.000000 59040.5134  3.94%   437    1s

Cutting planes:
  Cover: 5
  Clique: 57
  MIR: 106
  StrongCG: 16
  GUB cover: 74
  Zero half: 12
  Mod-K: 2
  RLT: 10

Explored 111 nodes (39011 simplex iterations) in 1.84 seconds (3.01 work units)
Thread count was 8 (of 8 available processors)

Solution count 10: 61464 66644 69052 ... 97772

Optimal solution found (tolerance 1.00e-04)
Best objective 6.146400000000e+04, best bound 6.146400000000e+04, gap 0.0000%

Gurobi 9.5.2 (mac64[arm]) logging started Fri Apr 28 19:18:13 2023

Set parameter LogFile to value "Java/output/iterative_model_2_machine/scenario_seed_4_nJob_40_machineCount_2/mip_increment_2/log.txt"
Gurobi Optimizer version 9.5.2 build v9.5.2rc0 (mac64[arm])
Thread count: 8 physical cores, 8 logical processors, using up to 8 threads
Optimize a model with 948 rows, 2215 columns and 14882 nonzeros
Model fingerprint: 0x05cadf3e
Variable types: 0 continuous, 2215 integer (2215 binary)
Coefficient statistics:
  Matrix range     [1e+00, 2e+02]
  Objective range  [9e+01, 4e+04]
  Bounds range     [1e+00, 1e+00]
  RHS range        [1e+00, 1e+00]
Presolve removed 577 rows and 527 columns
Presolve time: 0.02s
Presolved: 371 rows, 1688 columns, 11150 nonzeros
Variable types: 0 continuous, 1688 integer (1688 binary)

Root relaxation: objective 2.919923e+04, 933 iterations, 0.01 seconds (0.02 work units)

    Nodes    |    Current Node    |     Objective Bounds      |     Work
 Expl Unexpl |  Obj  Depth IntInf | Incumbent    BestBd   Gap | It/Node Time

     0     0 29199.2331    0   82          - 29199.2331      -     -    0s
H    0     0                    79820.000000 29199.2331  63.4%     -    0s
H    0     0                    74717.000000 29199.2331  60.9%     -    0s
H    0     0                    68907.000000 29199.2331  57.6%     -    0s
H    0     0                    57518.000000 29199.2331  49.2%     -    0s
H    0     0                    54043.000000 29509.8112  45.4%     -    0s
     0     0 29509.8112    0  113 54043.0000 29509.8112  45.4%     -    0s
     0     0 29522.6746    0  107 54043.0000 29522.6746  45.4%     -    0s
     0     0 29523.0472    0  112 54043.0000 29523.0472  45.4%     -    0s
     0     0 29523.2812    0  111 54043.0000 29523.2812  45.4%     -    0s
H    0     0                    53708.000000 29914.0587  44.3%     -    0s
H    0     0                    53224.000000 29914.0587  43.8%     -    0s
H    0     0                    51784.000000 29914.0587  42.2%     -    0s
     0     0 29914.0587    0  117 51784.0000 29914.0587  42.2%     -    0s
H    0     0                    49376.000000 29914.0587  39.4%     -    0s
     0     0 30072.2556    0  124 49376.0000 30072.2556  39.1%     -    0s
     0     0 30074.7547    0  125 49376.0000 30074.7547  39.1%     -    0s
     0     0 30075.7176    0  126 49376.0000 30075.7176  39.1%     -    0s
     0     0 30075.7819    0  127 49376.0000 30075.7819  39.1%     -    0s
H    0     0                    41852.000000 30766.3103  26.5%     -    0s
H    0     0                    37556.000000 30766.3103  18.1%     -    0s
     0     0 30766.3103    0  157 37556.0000 30766.3103  18.1%     -    0s
H    0     0                    37554.000000 30766.3103  18.1%     -    0s
H    0     0                    36156.000000 30766.3103  14.9%     -    0s
     0     0 30825.3151    0  167 36156.0000 30825.3151  14.7%     -    0s
     0     0 30837.8212    0  172 36156.0000 30837.8212  14.7%     -    0s
     0     0 30841.2113    0  172 36156.0000 30841.2113  14.7%     -    0s
     0     0 30841.2969    0  172 36156.0000 30841.2969  14.7%     -    0s
     0     0 31315.5952    0  168 36156.0000 31315.5952  13.4%     -    0s
     0     0 31444.1052    0  174 36156.0000 31444.1052  13.0%     -    0s
     0     0 31495.7604    0  186 36156.0000 31495.7604  12.9%     -    0s
H    0     0                    36038.000000 31535.1655  12.5%     -    0s
     0     0 31535.1655    0  183 36038.0000 31535.1655  12.5%     -    0s
     0     0 31536.2536    0  184 36038.0000 31536.2536  12.5%     -    0s
     0     0 31673.6523    0  188 36038.0000 31673.6523  12.1%     -    0s
H    0     0                    34720.000000 31673.6523  8.77%     -    0s
     0     0 31702.5302    0  193 34720.0000 31702.5302  8.69%     -    0s
     0     0 31709.9355    0  192 34720.0000 31709.9355  8.67%     -    0s
     0     0 31709.9355    0  191 34720.0000 31709.9355  8.67%     -    0s
     0     0 31763.3095    0  177 34720.0000 31763.3095  8.52%     -    0s
     0     0 31805.7573    0  196 34720.0000 31805.7573  8.39%     -    0s
     0     0 31817.0321    0  192 34720.0000 31817.0321  8.36%     -    0s
     0     0 31817.4620    0  191 34720.0000 31817.4620  8.36%     -    0s
     0     0 31866.6710    0  194 34720.0000 31866.6710  8.22%     -    0s
     0     0 31893.4631    0  203 34720.0000 31893.4631  8.14%     -    0s
     0     0 31894.9549    0  201 34720.0000 31894.9549  8.14%     -    0s
     0     0 31945.6413    0  199 34720.0000 31945.6413  7.99%     -    0s
     0     0 31954.2069    0  207 34720.0000 31954.2069  7.97%     -    0s
     0     0 31957.3304    0  202 34720.0000 31957.3304  7.96%     -    0s
     0     0 31959.6418    0  202 34720.0000 31959.6418  7.95%     -    0s
     0     0 31960.0922    0  204 34720.0000 31960.0922  7.95%     -    0s
     0     0 31981.5785    0  218 34720.0000 31981.5785  7.89%     -    0s
H    0     0                    34344.000000 31981.5785  6.88%     -    0s
     0     0 31987.9561    0  218 34344.0000 31987.9561  6.86%     -    0s
     0     0 31988.7508    0  218 34344.0000 31988.7508  6.86%     -    0s
     0     0 32004.9117    0  224 34344.0000 32004.9117  6.81%     -    0s
     0     0 32004.9117    0   78 34344.0000 32004.9117  6.81%     -    0s
     0     0 32004.9117    0  143 34344.0000 32004.9117  6.81%     -    0s
     0     0 32004.9117    0  160 34344.0000 32004.9117  6.81%     -    0s
H    0     0                    33482.000000 32004.9117  4.41%     -    0s
     0     0 32004.9117    0  187 33482.0000 32004.9117  4.41%     -    0s
     0     0 32004.9117    0  186 33482.0000 32004.9117  4.41%     -    0s
     0     0 32004.9117    0  202 33482.0000 32004.9117  4.41%     -    0s
     0     0 32004.9117    0  209 33482.0000 32004.9117  4.41%     -    0s
     0     0 32004.9117    0  220 33482.0000 32004.9117  4.41%     -    0s
     0     0 32004.9117    0  217 33482.0000 32004.9117  4.41%     -    0s
     0     0 32004.9117    0  221 33482.0000 32004.9117  4.41%     -    0s
     0     0 32004.9117    0  222 33482.0000 32004.9117  4.41%     -    0s
     0     0 32013.1094    0  218 33482.0000 32013.1094  4.39%     -    0s
     0     0 32017.0674    0  222 33482.0000 32017.0674  4.38%     -    0s
     0     0 32017.3949    0  223 33482.0000 32017.3949  4.37%     -    0s
     0     0 32032.2884    0  228 33482.0000 32032.2884  4.33%     -    0s
     0     0 32032.2884    0  226 33482.0000 32032.2884  4.33%     -    0s
H    0     0                    32885.000000 32032.2884  2.59%     -    0s
H    0     0                    32389.000000 32039.9914  1.08%     -    0s
     0     0 32039.9914    0   83 32389.0000 32039.9914  1.08%     -    0s
     0     0 32039.9914    0  131 32389.0000 32039.9914  1.08%     -    0s
     0     0 32039.9914    0  150 32389.0000 32039.9914  1.08%     -    0s
     0     0 32055.2956    0  161 32389.0000 32055.2956  1.03%     -    0s
     0     0 32099.1443    0  141 32389.0000 32099.1443  0.89%     -    0s
     0     0 32107.1190    0  174 32389.0000 32107.1190  0.87%     -    0s
     0     0 32107.2156    0  175 32389.0000 32107.2156  0.87%     -    0s
     0     0 32117.7388    0  173 32389.0000 32117.7388  0.84%     -    0s
     0     0 32117.7388    0  174 32389.0000 32117.7388  0.84%     -    0s
     0     0 32117.7388    0  169 32389.0000 32117.7388  0.84%     -    0s
     0     0 32120.3053    0   78 32389.0000 32120.3053  0.83%     -    0s
     0     0 32120.3053    0  131 32389.0000 32120.3053  0.83%     -    1s
     0     0 32120.3053    0   93 32389.0000 32120.3053  0.83%     -    1s
     0     0 32120.3053    0  140 32389.0000 32120.3053  0.83%     -    1s
     0     0 32120.3053    0  126 32389.0000 32120.3053  0.83%     -    1s
     0     0 32120.3053    0  133 32389.0000 32120.3053  0.83%     -    1s
     0     0 32120.3053    0  130 32389.0000 32120.3053  0.83%     -    1s
     0     0 32120.3053    0  143 32389.0000 32120.3053  0.83%     -    1s
     0     0 32147.1875    0  125 32389.0000 32147.1875  0.75%     -    1s
     0     0 32147.3125    0  125 32389.0000 32147.3125  0.75%     -    1s
     0     0 32149.4907    0  117 32389.0000 32149.4907  0.74%     -    1s
     0     0 32149.4907    0  117 32389.0000 32149.4907  0.74%     -    1s
     0     0 32156.8382    0   60 32389.0000 32156.8382  0.72%     -    1s
     0     0 32156.8382    0   82 32389.0000 32156.8382  0.72%     -    1s
     0     0 32156.8382    0  110 32389.0000 32156.8382  0.72%     -    1s
     0     0 32156.8382    0  102 32389.0000 32156.8382  0.72%     -    1s
     0     0 32156.8382    0   98 32389.0000 32156.8382  0.72%     -    1s
     0     0 32156.8382    0  102 32389.0000 32156.8382  0.72%     -    1s
     0     0 32157.5683    0   94 32389.0000 32157.5683  0.71%     -    1s
     0     0 32197.1000    0   95 32389.0000 32197.1000  0.59%     -    1s
     0     0     cutoff    0      32389.0000 32389.0000  0.00%     -    1s

Cutting planes:
  Cover: 1
  Clique: 13
  MIR: 20
  StrongCG: 5
  GUB cover: 26
  Zero half: 4
  RLT: 2

Explored 1 nodes (12254 simplex iterations) in 1.12 seconds (1.41 work units)
Thread count was 8 (of 8 available processors)

Solution count 10: 32389 32885 33482 ... 41852

Optimal solution found (tolerance 1.00e-04)
Best objective 3.238900000000e+04, best bound 3.238900000000e+04, gap 0.0000%

Gurobi 9.5.2 (mac64[arm]) logging started Fri Apr 28 19:18:14 2023

Set parameter LogFile to value "Java/output/iterative_model_2_machine/scenario_seed_4_nJob_40_machineCount_2/mip_increment_2/log.txt"
Gurobi Optimizer version 9.5.2 build v9.5.2rc0 (mac64[arm])
Thread count: 8 physical cores, 8 logical processors, using up to 8 threads
Optimize a model with 1974 rows, 35224 columns and 393683 nonzeros
Model fingerprint: 0x3ee5e9f0
Variable types: 0 continuous, 35224 integer (35224 binary)
Coefficient statistics:
  Matrix range     [1e+00, 2e+02]
  Objective range  [5e+00, 2e+06]
  Bounds range     [1e+00, 1e+00]
  RHS range        [1e+00, 1e+00]

Warning: Completing partial solution with 35105 unfixed non-continuous variables out of 35224
User MIP start produced solution with objective 91882 (0.02s)
Loaded user MIP start with objective 91882

Presolve removed 110 rows and 5054 columns
Presolve time: 0.41s
Presolved: 1864 rows, 30170 columns, 339786 nonzeros
Variable types: 0 continuous, 30170 integer (30170 binary)
Found heuristic solution: objective 91386.000000

Root simplex log...

Iteration    Objective       Primal Inf.    Dual Inf.      Time
   29472    1.2305052e+04   1.814909e+03   0.000000e+00      5s
   31283    1.2318685e+04   0.000000e+00   0.000000e+00      5s

Root relaxation: objective 1.231869e+04, 31283 iterations, 4.98 seconds (12.81 work units)

    Nodes    |    Current Node    |     Objective Bounds      |     Work
 Expl Unexpl |  Obj  Depth IntInf | Incumbent    BestBd   Gap | It/Node Time

     0     0 12318.6854    0  489 91386.0000 12318.6854  86.5%     -    5s
H    0     0                    85923.000000 12318.6854  85.7%     -    5s
     0     0 12468.8401    0  637 85923.0000 12468.8401  85.5%     -    7s
H    0     0                    85714.000000 12468.8401  85.5%     -    8s
H    0     0                    85239.000000 12468.8401  85.4%     -    8s
     0     0 12496.5537    0  643 85239.0000 12496.5537  85.3%     -    9s
H    0     0                    85078.000000 12499.7241  85.3%     -    9s
     0     0 12499.7241    0  652 85078.0000 12499.7241  85.3%     -    9s
     0     0 12499.8260    0  655 85078.0000 12499.8260  85.3%     -    9s
     0     0 12668.0169    0  679 85078.0000 12668.0169  85.1%     -   11s
H    0     0                    85052.000000 12668.0169  85.1%     -   12s
     0     0 12697.4893    0  728 85052.0000 12697.4893  85.1%     -   13s
     0     0 12698.7399    0  748 85052.0000 12698.7399  85.1%     -   13s
     0     0 12699.2099    0  746 85052.0000 12699.2099  85.1%     -   13s
     0     0 12699.2562    0  746 85052.0000 12699.2562  85.1%     -   13s
     0     0 12794.8695    0  738 85052.0000 12794.8695  85.0%     -   15s
     0     0 12823.0000    0  779 85052.0000 12823.0000  84.9%     -   17s
     0     0 12828.6517    0  810 85052.0000 12828.6517  84.9%     -   18s
     0     0 12829.0590    0  831 85052.0000 12829.0590  84.9%     -   18s
     0     0 12829.1019    0  828 85052.0000 12829.1019  84.9%     -   18s
     0     0 13156.8139    0  846 85052.0000 13156.8139  84.5%     -   21s
     0     0 13216.3132    0  864 85052.0000 13216.3132  84.5%     -   24s
     0     0 13245.2691    0  896 85052.0000 13245.2691  84.4%     -   25s
     0     0 13249.7035    0  893 85052.0000 13249.7035  84.4%     -   26s
     0     0 13250.0016    0  917 85052.0000 13250.0016  84.4%     -   26s
H    0     0                    81367.000000 13558.2771  83.3%     -   31s
H    0     0                    81317.000000 13558.2771  83.3%     -   31s
     0     0 13558.2771    0  833 81317.0000 13558.2771  83.3%     -   31s
H    0     0                    81309.000000 13558.2771  83.3%     -   31s
     0     0 13803.3880    0  862 81309.0000 13803.3880  83.0%     -   35s
     0     0 13907.0304    0  865 81309.0000 13907.0304  82.9%     -   37s
     0     0 13924.3926    0  894 81309.0000 13924.3926  82.9%     -   38s
     0     0 13927.2954    0  909 81309.0000 13927.2954  82.9%     -   39s
     0     0 13927.4337    0  915 81309.0000 13927.4337  82.9%     -   39s
     0     0 14251.8269    0  919 81309.0000 14251.8269  82.5%     -   44s
H    0     0                    81005.000000 14251.8269  82.4%     -   44s
     0     0 14310.3034    0  945 81005.0000 14310.3034  82.3%     -   47s
     0     0 14329.8912    0  952 81005.0000 14329.8912  82.3%     -   48s
     0     0 14342.7051    0  987 81005.0000 14342.7051  82.3%     -   49s
     0     0 14344.0998    0  995 81005.0000 14344.0998  82.3%     -   50s
     0     0 14344.4879    0 1010 81005.0000 14344.4879  82.3%     -   50s
     0     0 14939.6434    0  956 81005.0000 14939.6434  81.6%     -   57s
H    0     0                    80462.000000 14939.6434  81.4%     -   58s
     0     0 15472.4841    0  896 80462.0000 15472.4841  80.8%     -   64s
     0     0 15617.7514    0  909 80462.0000 15617.7514  80.6%     -   68s
     0     0 15629.9721    0  920 80462.0000 15629.9721  80.6%     -   69s
     0     0 15633.9904    0  932 80462.0000 15633.9904  80.6%     -   69s
     0     0 15634.4241    0  939 80462.0000 15634.4241  80.6%     -   69s
H    0     0                    80446.000000 16311.5983  79.7%     -   76s
     0     0 16311.6013    0  914 80446.0000 16311.6013  79.7%     -   76s
H    0     0                    80444.000000 16311.6013  79.7%     -   76s
H    0     0                    80220.000000 16311.6013  79.7%     -   76s
     0     0 16601.1022    0  952 80220.0000 16601.1022  79.3%     -   81s
     0     0 16648.0138    0  957 80220.0000 16648.0138  79.2%     -   83s
     0     0 16659.0938    0  964 80220.0000 16659.0938  79.2%     -   84s
     0     0 16680.2749    0  977 80220.0000 16680.2749  79.2%     -   87s
     0     0 16713.8768    0  970 80220.0000 16713.8768  79.2%     -   89s
     0     0 16716.7283    0  989 80220.0000 16716.7283  79.2%     -   90s
     0     0 16717.0800    0  988 80220.0000 16717.0800  79.2%     -   90s
     0     0 17861.9043    0  916 80220.0000 17861.9043  77.7%     -   96s
     0     0 17861.9043    0  499 80220.0000 17861.9043  77.7%     -  101s
     0     0 17861.9043    0  636 80220.0000 17861.9043  77.7%     -  104s
     0     0 17861.9043    0  779 80220.0000 17861.9043  77.7%     -  108s
     0     0 17861.9043    0  828 80220.0000 17861.9043  77.7%     -  114s
     0     0 18098.4617    0  870 80220.0000 18098.4617  77.4%     -  116s
     0     0 18127.1038    0  879 80220.0000 18127.1038  77.4%     -  117s
     0     0 18137.0641    0  889 80220.0000 18137.0641  77.4%     -  118s
     0     0 18145.0724    0  903 80220.0000 18145.0724  77.4%     -  118s
     0     0 18145.3300    0  912 80220.0000 18145.3300  77.4%     -  118s
     0     0 18145.4596    0  920 80220.0000 18145.4596  77.4%     -  118s
     0     0 19316.0642    0  894 80220.0000 19316.0642  75.9%     -  121s
H    0     0                    79655.000000 19316.0642  75.8%     -  121s
     0     0 19543.5039    0  935 79655.0000 19543.5039  75.5%     -  123s
     0     0 19560.4761    0  959 79655.0000 19560.4761  75.4%     -  124s
     0     0 19565.9882    0  957 79655.0000 19565.9882  75.4%     -  124s
     0     0 19566.2814    0  965 79655.0000 19566.2814  75.4%     -  125s
     0     0 21799.5304    0  916 79655.0000 21799.5304  72.6%     -  130s
H    0     0                    79650.000000 21799.5304  72.6%     -  130s
     0     0 23271.5692    0  964 79650.0000 23271.5692  70.8%     -  136s
     0     0 23526.7059    0  993 79650.0000 23526.7059  70.5%     -  139s
     0     0 23612.4158    0  983 79650.0000 23612.4158  70.4%     -  140s
     0     0 23614.4916    0  996 79650.0000 23614.4916  70.4%     -  141s
     0     0 25726.6190    0  962 79650.0000 25726.6190  67.7%     -  146s
H    0     0                    79602.000000 25726.6190  67.7%     -  146s
     0     0 26004.6622    0  997 79602.0000 26004.6622  67.3%     -  149s
     0     0 26278.5378    0 1009 79602.0000 26278.5378  67.0%     -  151s
     0     0 26448.1258    0 1029 79602.0000 26448.1258  66.8%     -  153s
     0     0 26464.9213    0 1035 79602.0000 26464.9213  66.8%     -  154s
     0     0 26467.5171    0 1058 79602.0000 26467.5171  66.8%     -  154s
H    0     0                    77819.000000 26467.5171  66.0%     -  159s
H    0     0                    77814.000000 26467.5171  66.0%     -  159s
     0     0 27849.5993    0 1045 77814.0000 27849.5993  64.2%     -  159s
H    0     0                    77735.000000 27849.5993  64.2%     -  167s
     0     0 28672.6704    0  996 77735.0000 28672.6704  63.1%     -  167s
     0     0 28986.7658    0 1036 77735.0000 28986.7658  62.7%     -  170s
     0     0 29029.6651    0 1037 77735.0000 29029.6651  62.7%     -  172s
     0     0 29035.8416    0 1041 77735.0000 29035.8416  62.6%     -  172s
     0     0 31569.8383    0 1014 77735.0000 31569.8383  59.4%     -  179s
H    0     0                    77734.000000 31569.8383  59.4%     -  179s
H    0     0                    77730.000000 31569.8383  59.4%     -  179s
     0     0 32255.6754    0 1038 77730.0000 32255.6754  58.5%     -  188s
H    0     0                    77720.000000 32255.6754  58.5%     -  191s
     0     0 32319.6096    0 1065 77720.0000 32319.6096  58.4%     -  191s
     0     0 32331.8700    0 1077 77720.0000 32331.8700  58.4%     -  192s
     0     0 35932.3602    0 1060 77720.0000 35932.3602  53.8%     -  199s
     0     0 36092.8547    0 1089 77720.0000 36092.8547  53.6%     -  204s
     0     0 36145.3602    0 1126 77720.0000 36145.3602  53.5%     -  205s
     0     0 36153.6146    0 1143 77720.0000 36153.6146  53.5%     -  206s
     0     0 38072.1896    0 1089 77720.0000 38072.1896  51.0%     -  215s
H    0     0                    77241.000000 38072.1896  50.7%     -  215s
     0     0 38521.0011    0 1143 77241.0000 38521.0011  50.1%     -  220s
     0     0 38624.9109    0 1142 77241.0000 38624.9109  50.0%     -  222s
     0     0 38630.3424    0 1169 77241.0000 38630.3424  50.0%     -  223s
     0     0 39469.4812    0 1114 77241.0000 39469.4812  48.9%     -  229s
H    0     0                    76253.000000 39469.4812  48.2%     -  230s
     0     0 39835.7213    0 1123 76253.0000 39835.7213  47.8%     -  236s
     0     0 39873.7705    0 1161 76253.0000 39873.7705  47.7%     -  238s
     0     0 39889.4790    0 1190 76253.0000 39889.4790  47.7%     -  239s
     0     0 40257.2417    0 1105 76253.0000 40257.2417  47.2%     -  244s
H    0     0                    76207.000000 40257.2417  47.2%     -  244s
     0     0 40604.2246    0 1139 76207.0000 40604.2246  46.7%     -  248s
     0     0 40650.8546    0 1154 76207.0000 40650.8546  46.7%     -  250s
     0     0 40694.0217    0 1155 76207.0000 40694.0217  46.6%     -  252s
     0     0 40700.6885    0 1152 76207.0000 40700.6885  46.6%     -  253s
     0     0 40853.5338    0 1176 76207.0000 40853.5338  46.4%     -  257s
     0     0 40972.2387    0 1193 76207.0000 40972.2387  46.2%     -  265s
     0     0 40992.3162    0 1196 76207.0000 40992.3162  46.2%     -  267s
     0     0 41105.4922    0 1155 76207.0000 41105.4922  46.1%     -  270s
     0     0 41105.4922    0 1152 76207.0000 41105.4922  46.1%     -  270s
H    0     0                    75999.000000 41105.4922  45.9%     -  287s
     0     2 41105.9381    0 1152 75999.0000 41105.9381  45.9%     -  290s
     3     8 43126.4273    2 1027 75999.0000 41250.6874  45.7% 22878  312s
     7    16 45205.1452    3 1094 75999.0000 41561.0018  45.3% 20988  326s
    15    24 45518.8860    4 1106 75999.0000 41658.9752  45.2% 21931  341s
    23    32 45754.9787    5 1106 75999.0000 41658.9752  45.2% 20694  359s
    31    38     cutoff    5      75999.0000 41823.2876  45.0% 19845  388s
H   32    38                    75968.000000 41823.2876  44.9% 19225  388s
    39    46 46108.0681    6 1104 75968.0000 41823.2876  44.9% 18741  405s
    47    54 73863.4539    6 1015 75968.0000 41890.2067  44.9% 19375  429s
    55    63 46576.3739    7 1108 75968.0000 41890.2067  44.9% 19592  466s
H   64    72                    75359.000000 41924.8093  44.4% 20107  502s
H   66    72                    74944.000000 41924.8093  44.1% 20665  502s
H   67    72                    74399.000000 41924.8093  43.6% 20663  502s
    73    79 47084.9906    8 1110 74399.0000 41924.8093  43.6% 19993  527s
    82    89 48997.9589    8 1080 74399.0000 41924.8093  43.6% 19994  553s
    94    96 48072.1673    9 1010 74399.0000 41924.8093  43.6% 19039  580s
H  105   104                    74328.000000 41924.8093  43.6% 18378  593s
H  105   104                    73724.000000 41924.8093  43.1% 18378  593s

Cutting planes:
  Cover: 2
  Clique: 285
  MIR: 529
  StrongCG: 286
  GUB cover: 270
  Mod-K: 1

Explored 115 nodes (2739027 simplex iterations) in 593.02 seconds (1748.81 work units)
Thread count was 8 (of 8 available processors)

Solution count 10: 73724 74328 74399 ... 77241

Time limit reached
Best objective 7.372400000000e+04, best bound 4.192500000000e+04, gap 43.1325%
